(declare-fun syscall_stub_readlink_292_64 () (_ BitVec 64))
(assert (and (= #b0 ((_ extract 31 31) syscall_stub_readlink_292_64))))
(define-fun goal () (_ BitVec 64) (bvadd ((_ sign_extend 32) ((_ extract 31 0) syscall_stub_readlink_292_64))
       #x07fffffffffee5b0)) 
(maximize goal)
(check-sat)